c CNF file corresponding to a (partial) station packing problem.
p cnf 6559 159
6548 6549 6550 6551 6552 6553 6554 6555 6556 6557 6558 6559 0
-6548 -6549 0
-6548 -6550 0
-6548 -6551 0
-6548 -6552 0
-6548 -6553 0
-6548 -6554 0
-6548 -6555 0
-6548 -6556 0
-6548 -6557 0
-6548 -6558 0
-6548 -6559 0
-6549 -6550 0
-6549 -6551 0
-6549 -6552 0
-6549 -6553 0
-6549 -6554 0
-6549 -6555 0
-6549 -6556 0
-6549 -6557 0
-6549 -6558 0
-6549 -6559 0
-6550 -6551 0
-6550 -6552 0
-6550 -6553 0
-6550 -6554 0
-6550 -6555 0
-6550 -6556 0
-6550 -6557 0
-6550 -6558 0
-6550 -6559 0
-6551 -6552 0
-6551 -6553 0
-6551 -6554 0
-6551 -6555 0
-6551 -6556 0
-6551 -6557 0
-6551 -6558 0
-6551 -6559 0
-6552 -6553 0
-6552 -6554 0
-6552 -6555 0
-6552 -6556 0
-6552 -6557 0
-6552 -6558 0
-6552 -6559 0
-6553 -6554 0
-6553 -6555 0
-6553 -6556 0
-6553 -6557 0
-6553 -6558 0
-6553 -6559 0
-6554 -6555 0
-6554 -6556 0
-6554 -6557 0
-6554 -6558 0
-6554 -6559 0
-6555 -6556 0
-6555 -6557 0
-6555 -6558 0
-6555 -6559 0
-6556 -6557 0
-6556 -6558 0
-6556 -6559 0
-6557 -6558 0
-6557 -6559 0
-6558 -6559 0
1 2 3 4 5 6 7 8 9 10 11 12 13 14 0
-1 -2 0
-1 -3 0
-1 -4 0
-1 -5 0
-1 -6 0
-1 -7 0
-1 -8 0
-1 -9 0
-1 -10 0
-1 -11 0
-1 -12 0
-1 -13 0
-1 -14 0
-2 -3 0
-2 -4 0
-2 -5 0
-2 -6 0
-2 -7 0
-2 -8 0
-2 -9 0
-2 -10 0
-2 -11 0
-2 -12 0
-2 -13 0
-2 -14 0
-3 -4 0
-3 -5 0
-3 -6 0
-3 -7 0
-3 -8 0
-3 -9 0
-3 -10 0
-3 -11 0
-3 -12 0
-3 -13 0
-3 -14 0
-4 -5 0
-4 -6 0
-4 -7 0
-4 -8 0
-4 -9 0
-4 -10 0
-4 -11 0
-4 -12 0
-4 -13 0
-4 -14 0
-5 -6 0
-5 -7 0
-5 -8 0
-5 -9 0
-5 -10 0
-5 -11 0
-5 -12 0
-5 -13 0
-5 -14 0
-6 -7 0
-6 -8 0
-6 -9 0
-6 -10 0
-6 -11 0
-6 -12 0
-6 -13 0
-6 -14 0
-7 -8 0
-7 -9 0
-7 -10 0
-7 -11 0
-7 -12 0
-7 -13 0
-7 -14 0
-8 -9 0
-8 -10 0
-8 -11 0
-8 -12 0
-8 -13 0
-8 -14 0
-9 -10 0
-9 -11 0
-9 -12 0
-9 -13 0
-9 -14 0
-10 -11 0
-10 -12 0
-10 -13 0
-10 -14 0
-11 -12 0
-11 -13 0
-11 -14 0
-12 -13 0
-12 -14 0
-13 -14 0
